(set-option :produce-models true); benchmark generated from python API
(set-info :status unknown)
(declare-fun l_1_0_9 () Real)
(declare-fun l_1_0_8 () Real)
(declare-fun l_1_0_7 () Real)
(declare-fun l_1_0_6 () Real)
(declare-fun l_1_0_5 () Real)
(declare-fun l_1_0_4 () Real)
(declare-fun l_1_0_3 () Real)
(declare-fun l_1_0_2 () Real)
(declare-fun l_1_0_1 () Real)
(declare-fun _a_0_ () Real)
(declare-fun l_1_0_10 () Real)
(declare-fun _a_1_ () Real)
(declare-fun l_1_0_11 () Real)
(declare-fun _a_2_ () Real)
(declare-fun l_1_1_6 () Real)
(declare-fun l_1_1_5 () Real)
(declare-fun l_1_1_4 () Real)
(declare-fun l_1_1_2 () Real)
(declare-fun l_1_1_16 () Real)
(declare-fun l_1_1_15 () Real)
(declare-fun l_1_1_13 () Real)
(declare-fun l_1_1_10 () Real)
(declare-fun l_1_1_9 () Real)
(declare-fun l_1_1_7 () Real)
(declare-fun l_1_1_3 () Real)
(declare-fun l_1_1_12 () Real)
(declare-fun l_1_1_17 () Real)
(declare-fun l_1_1_8 () Real)
(declare-fun l_1_1_14 () Real)
(declare-fun l_1_1_11 () Real)
(declare-fun l_1_1_1 () Real)
(declare-fun l_1_2_9 () Real)
(declare-fun l_1_2_8 () Real)
(declare-fun l_1_2_6 () Real)
(declare-fun l_1_2_3 () Real)
(declare-fun l_1_2_2 () Real)
(declare-fun l_1_2_15 () Real)
(declare-fun l_1_2_14 () Real)
(declare-fun l_1_2_12 () Real)
(declare-fun l_1_2_10 () Real)
(declare-fun l_1_2_1 () Real)
(declare-fun l_1_2_7 () Real)
(declare-fun l_1_2_5 () Real)
(declare-fun l_1_2_4 () Real)
(declare-fun l_1_2_13 () Real)
(declare-fun l_1_2_11 () Real)
(declare-fun l_1_2_16 () Real)
(declare-fun l_1_2_17 () Real)
(assert
 (let ((?x571 (* l_1_0_9 l_1_0_9)))
 (let ((?x574 (* 3.0 l_1_0_6)))
 (let ((?x576 (* 3.0 l_1_0_3)))
 (let ((?x575 (- (- (- (- _a_0_ (* 3.0 l_1_0_1)) (* 9.0 l_1_0_2)) ?x576) l_1_0_4)))
 (= (- (- (- (- (- ?x575 l_1_0_5) ?x574) l_1_0_7) l_1_0_8) ?x571) 0.0))))))
(assert
 (let ((?x434 (* 2.0 l_1_0_6)))
 (let ((?x432 (* 2.0 l_1_0_3)))
 (let ((?x430 (* 12.0 l_1_0_2)))
 (let ((?x428 (- (- _a_1_ (* 2.0 l_1_0_1)) (* (* 2.0 l_1_0_10) l_1_0_9))))
 (= (- (- (- ?x428 ?x430) ?x432) ?x434) 0.0))))))
(assert
 (let ((?x357 (* 2.0 l_1_0_2)))
 (let ((?x355 (* l_1_0_11 l_1_0_11)))
 (let ((?x359 (+ (+ (- (- (+ _a_2_ l_1_0_1) (* l_1_0_10 l_1_0_10)) ?x355) ?x357) l_1_0_3)))
 (= (+ ?x359 l_1_0_6) 0.0)))))
(assert
 (= (* 4.0 l_1_0_2) 0.0))
(assert
 (= (- l_1_0_2) 0.0))
(assert
 (>= l_1_0_1 0.0))
(assert
 (>= l_1_0_2 0.0))
(assert
 (>= l_1_0_3 0.0))
(assert
 (>= l_1_0_4 0.0))
(assert
 (>= l_1_0_5 0.0))
(assert
 (>= l_1_0_6 0.0))
(assert
 (>= l_1_0_7 0.0))
(assert
 (>= l_1_0_8 0.0))
(assert
 (>= l_1_0_9 0.0))
(assert
 (>= l_1_0_11 0.0))
(assert
 (let ((?x220 (* (/ 3.0 2.0) l_1_1_6)))
 (let ((?x216 (* (/ 3.0 2.0) l_1_1_4)))
 (let ((?x180 (* (/ 3.0 2.0) l_1_1_13)))
 (let ((?x305 (* 21.0 l_1_1_10)))
 (let ((?x302 (* _a_1_ l_1_1_9)))
 (let ((?x300 (* _a_1_ l_1_1_7)))
 (let ((?x298 (* _a_1_ l_1_1_3)))
 (let ((?x303 (- (- (- (* (* (* (- 2.0) _a_0_) _a_1_) l_1_1_12) ?x298) ?x300) ?x302)))
 (let ((?x215 (- (- (+ (- ?x303 ?x305) ?x180) (* (* 2.0 l_1_1_15) l_1_1_16)) (* l_1_1_2 (- (* (- (/ 3.0 2.0)) _a_0_) (* 7.0 _a_1_))))))
 (let ((?x219 (- (+ ?x215 ?x216) (* l_1_1_5 (- (* (- (/ 3.0 2.0)) _a_0_) (* 7.0 _a_1_))))))
 (= (+ (+ ?x219 ?x220) 7.0) 0.0))))))))))))
(assert
 (let ((?x324 (* l_1_1_17 l_1_1_17)))
 (let ((?x454 (* l_1_1_16 l_1_1_16)))
 (let ((?x335 (* (/ 47.0 4.0) l_1_1_10)))
 (let ((?x36 (* _a_2_ l_1_1_9)))
 (let ((?x336 (+ (- (- (* (- _a_2_) l_1_1_3) (* _a_2_ l_1_1_7)) ?x36) ?x335)))
 (let ((?x400 (- ?x336 (* l_1_1_12 (+ (* (* 2.0 _a_0_) _a_2_) (* _a_1_ _a_1_))))))
 (let ((?x505 (- (- (- (- ?x400 l_1_1_13) ?x454) ?x324) (* l_1_1_2 (- (- _a_0_ (* (/ 3.0 2.0) _a_1_)) (* 7.0 _a_2_))))))
 (let ((?x508 (- (- ?x505 l_1_1_4) (* l_1_1_5 (- (- _a_0_ (* (/ 3.0 2.0) _a_1_)) (* 7.0 _a_2_))))))
 (= (- (- ?x508 l_1_1_6) 1.0) 0.0))))))))))
(assert
 (let ((?x242 (* 7.0 l_1_1_6)))
 (let ((?x241 (* 7.0 l_1_1_4)))
 (let ((?x84 (* l_1_1_15 l_1_1_15)))
 (let ((?x448 (* 7.0 l_1_1_13)))
 (let ((?x409 (* 49.0 l_1_1_10)))
 (let ((?x97 (* _a_0_ l_1_1_9)))
 (let ((?x100 (* _a_0_ l_1_1_7)))
 (let ((?x99 (+ (- (* (* 7.0 _a_0_) l_1_1_2) (* _a_0_ l_1_1_3)) (* (* 7.0 _a_0_) l_1_1_5))))
 (let ((?x447 (- (- (- (- (- (- ?x99 ?x100) ?x97) l_1_1_1) ?x409) l_1_1_11) (* (* l_1_1_12 _a_0_) _a_0_))))
 (let ((?x398 (- (+ (+ (- (- (+ ?x447 ?x448) l_1_1_14) ?x84) ?x241) ?x242) l_1_1_8)))
 (= (- ?x398 10.0) 0.0))))))))))))
(assert
 (let ((?x198 (* 3.0 l_1_1_10)))
 (let ((?x461 (- (+ (* (* (* (- 2.0) _a_1_) _a_2_) l_1_1_12) ?x198) (* l_1_1_2 (- _a_1_ (* (/ 3.0 2.0) _a_2_))))))
 (= (- ?x461 (* l_1_1_5 (- _a_1_ (* (/ 3.0 2.0) _a_2_)))) 0.0))))
(assert
 (let ((?x56 (- (- (- (* (- _a_2_) l_1_1_2) (* _a_2_ l_1_1_5)) l_1_1_10) (* (* l_1_1_12 _a_2_) _a_2_))))
 (= ?x56 0.0)))
(assert
 (>= l_1_1_1 0.0))
(assert
 (>= l_1_1_2 0.0))
(assert
 (>= l_1_1_3 0.0))
(assert
 (>= l_1_1_4 0.0))
(assert
 (>= l_1_1_5 0.0))
(assert
 (>= l_1_1_6 0.0))
(assert
 (>= l_1_1_7 0.0))
(assert
 (>= l_1_1_8 0.0))
(assert
 (>= l_1_1_9 0.0))
(assert
 (>= l_1_1_10 0.0))
(assert
 (>= l_1_1_11 0.0))
(assert
 (>= l_1_1_12 0.0))
(assert
 (>= l_1_1_13 0.0))
(assert
 (>= l_1_1_14 0.0))
(assert
 (>= l_1_1_15 0.0))
(assert
 (>= l_1_1_17 0.0))
(assert
 (let ((?x619 (* 7.0 l_1_2_3)))
 (let ((?x617 (* 7.0 l_1_2_2)))
 (let ((?x615 (* l_1_2_15 l_1_2_15)))
 (let ((?x612 (* 7.0 l_1_2_12)))
 (let ((?x610 (* 49.0 l_1_2_10)))
 (let ((?x604 (* _a_0_ l_1_2_5)))
 (let ((?x602 (* _a_0_ l_1_2_4)))
 (let ((?x603 (- (- (* (- _a_0_) l_1_2_11) (* (* 7.0 _a_0_) l_1_2_13)) ?x602)))
 (let ((?x609 (- (+ (- (- ?x603 ?x604) (* (* 7.0 _a_0_) l_1_2_7)) _a_0_) l_1_2_1)))
 (let ((?x621 (- (- (- (- (- (- (- ?x609 ?x610) ?x612) l_1_2_14) ?x615) ?x617) ?x619) l_1_2_6)))
 (= (- (- ?x621 l_1_2_8) (* (* l_1_2_9 _a_0_) _a_0_)) 0.0))))))))))))
(assert
 (let ((?x708 (* (/ 3.0 2.0) l_1_2_3)))
 (let ((?x706 (* (/ 3.0 2.0) l_1_2_2)))
 (let ((?x697 (* (/ 3.0 2.0) l_1_2_12)))
 (let ((?x695 (* 21.0 l_1_2_10)))
 (let ((?x693 (* (/ 124.0 125.0) _a_1_)))
 (let ((?x690 (* _a_1_ l_1_2_5)))
 (let ((?x688 (* _a_1_ l_1_2_4)))
 (let ((?x686 (* _a_1_ l_1_2_11)))
 (let ((?x691 (- (- (- (* (* (* (- 2.0) _a_0_) _a_1_) l_1_2_9) ?x686) ?x688) ?x690)))
 (let ((?x702 (- (- (- (+ ?x691 ?x693) ?x695) ?x697) (* l_1_2_13 (+ (* (/ 3.0 2.0) _a_0_) (* 7.0 _a_1_))))))
 (let ((?x711 (- (- (- (- ?x702 (* (* 2.0 l_1_2_15) l_1_2_16)) ?x706) ?x708) (* l_1_2_7 (+ (* (/ 3.0 2.0) _a_0_) (* 7.0 _a_1_))))))
 (= ?x711 0.0)))))))))))))
(assert
 (let ((?x797 (* 3.0 l_1_2_10)))
 (let ((?x795 (* (/ 186.0 15625.0) _a_2_)))
 (let ((?x796 (+ (- (* (* (* (- 2.0) _a_1_) _a_2_) l_1_2_9) (* (/ 1.0 1000.0) _a_1_)) ?x795)))
 (let ((?x804 (- (- (+ ?x796 ?x797) (* l_1_2_13 (+ (- _a_1_) (* (/ 3.0 2.0) _a_2_)))) (* l_1_2_7 (+ (- _a_1_) (* (/ 3.0 2.0) _a_2_))))))
 (= ?x804 0.0))))))
(assert
 (let ((?x118 (* 7.0 _a_2_)))
 (let ((?x875 (+ (+ (- _a_0_) (* (/ 3.0 2.0) _a_1_)) ?x118)))
 (let ((?x880 (* l_1_2_17 l_1_2_17)))
 (let ((?x878 (* l_1_2_16 l_1_2_16)))
 (let ((?x871 (* (/ 47.0 4.0) l_1_2_10)))
 (let ((?x869 (* (/ 15376.0 15625.0) _a_2_)))
 (let ((?x866 (* _a_2_ l_1_2_5)))
 (let ((?x864 (* _a_2_ l_1_2_4)))
 (let ((?x870 (+ (- (- (- (* (/ 3.0 500.0) _a_1_) (* _a_2_ l_1_2_11)) ?x864) ?x866) ?x869)))
 (let ((?x881 (- (- (- (+ (+ ?x870 ?x871) l_1_2_12) (* l_1_2_13 ?x875)) ?x878) ?x880)))
 (let ((?x887 (- (- (+ (+ ?x881 l_1_2_2) l_1_2_3) (* l_1_2_7 ?x875)) (* l_1_2_9 (+ (* (* 2.0 _a_0_) _a_2_) (* _a_1_ _a_1_))))))
 (= ?x887 0.0)))))))))))))
(assert
 (let ((?x969 (* (/ 487.0 250000.0) _a_2_)))
 (let ((?x843 (* _a_2_ l_1_2_7)))
 (let ((?x825 (* _a_2_ l_1_2_13)))
 (let ((?x967 (+ ?x825 ?x843)))
 (= (- (- (- ?x967 ?x969) l_1_2_10) (* (* l_1_2_9 _a_2_) _a_2_)) 0.0))))))
(assert
 (= (* (/ 1.0 1000000.0) _a_2_) 0.0))
(assert
 (= (* (- (/ 3.0 250000.0)) _a_2_) 0.0))
(assert
 (>= l_1_2_1 0.0))
(assert
 (>= l_1_2_2 0.0))
(assert
 (>= l_1_2_3 0.0))
(assert
 (>= l_1_2_4 0.0))
(assert
 (>= l_1_2_5 0.0))
(assert
 (>= l_1_2_6 0.0))
(assert
 (>= l_1_2_7 0.0))
(assert
 (>= l_1_2_8 0.0))
(assert
 (>= l_1_2_9 0.0))
(assert
 (>= l_1_2_10 0.0))
(assert
 (>= l_1_2_11 0.0))
(assert
 (>= l_1_2_12 0.0))
(assert
 (>= l_1_2_13 0.0))
(assert
 (>= l_1_2_14 0.0))
(assert
 (>= l_1_2_15 0.0))
(assert
 (>= l_1_2_17 0.0))
(check-sat)
(get-model)